100 10
72 659
227 605
860 745
859 595
780 790
300 476
692 531
829 678
120 771
605 870
76 574
580 226
354 628
143 583
368 648
480 315
594 274
348 522
899 525
393 508
142 679
714 558
474 326
688 171
432 720
79 661
472 326
951 737
363 359
710 631
368 790
356 650
904 605
676 840
828 581
604 612
505 484
378 597
637 352
420 521
381 414
371 423
322 563
276 470
275 610
383 438
972 277
191 727
840 125
313 564
315 545
163 503
158 627
379 427
840 765
694 542
844 878
185 528
163 645
432 309
334 431
187 503
779 713
409 833
829 446
289 556
502 534
343 525
242 617
142 384
740 910
31 627
542 847
396 686
731 130
340 749
181 426
448 554
172 457
701 804
534 602
531 806
163 773
98 495
248 317
369 563
618 210
504 227
442 647
214 409
55 695
739 803
774 762
461 256
207 548
155 772
216 616
661 259
462 277
878 656
